problem_generation/data/GISP/train/er_n=62_m=1108_p=0.60_SET2_setparam=100.00_alpha=0.50_998.lp
maximize
OBJ:100x0 + 100x1 + 100x2 + 100x3 + 100x4 + 100x5 + 100x6 + 100x7 + 100x8 + 100x9 + 100x10 + 100x11 + 100x12 + 100x13 + 100x14 + 100x15 + 100x16 + 100x17 + 100x18 + 100x19 + 100x20 + 100x21 + 100x22 + 100x23 + 100x24 + 100x25 + 100x26 + 100x27 + 100x28 + 100x29 + 100x30 + 100x31 + 100x32 + 100x33 + 100x34 + 100x35 + 100x36 + 100x37 + 100x38 + 100x39 + 100x40 + 100x41 + 100x42 + 100x43 + 100x44 + 100x45 + 100x46 + 100x47 + 100x48 + 100x49 + 100x50 + 100x51 + 100x52 + 100x53 + 100x54 + 100x55 + 100x56 + 100x57 + 100x58 + 100x59 + 100x60 + 100x61 - y15_39 - y26_39 - y21_46 - y41_42 - y10_45 - y10_54 - y22_28 - y3_33 - y14_42 - y15_16 - y7_12 - y47_48 - y15_25 - y55_61 - y28_53 - y5_60 - y9_58 - y6_34 - y48_58 - y6_61 - y21_59 - y10_22 - y10_40 - y2_36 - y25_47 - y10_58 - y22_23 - y51_59 - y2_54 - y3_19 - y14_19 - y13_60 - y16_56 - y7_16 - y47_61 - y9_44 - y17_57 - y28_57 - y29_40 - y40_58 - y2_13 - y54_60 - y2_40 - y32_41 - y3_14 - y24_46 - y1_53 - y24_55 - y35_55 - y36_38 - y7_11 - y5_41 - y47_56 - y9_39 - y6_15 - y17_61 - y6_24 - y21_22 - y6_33 - y6_42 - y40_44 - y6_51 - y21_49 - y10_21 - y31_53 - y10_30 - y2_26 - y2_35 - y43_45 - y35_41 - y14_18 - y35_50 - y1_57 - y35_59 - y5_27 - y28_29 - y9_25 - y47_51 - y28_47 - y9_43 - y28_56 - y39_52 - y10_25 - y4_49 - y3_4 - y32_40 - y13_36 - y32_49 - y16_32 - y1_52 - y35_54 - y16_50 - y1_61 - y9_11 - y5_40 - y28_42 - y9_38 - y6_14 - y21_30 - y19_60 - y20_34 - y10_11 - y39_47 - y12_39 - y23_39 - y2_16 - y20_52 - y31_52 - y4_44 - y32_35 - y24_31 - y46_55 - y38_51 - y49_51 - y38_60 - y5_35 - y27_41 - y8_46 - y19_46 - y30_46 - y42_48 - y30_55 - y11_51 - y20_29 - y11_60 - y23_25 - y39_51 - y12_34 - y31_47 - y23_52 - y4_48 - y1_24 - y32_39 - y38_46 - y17_23 - y57_59 - y26_53 - y9_28 - y27_36 - y8_32 - y19_32 - y27_45 - y8_41 - y19_41 - y42_61 - y0_55 - y20_33 - y31_33 - y39_46 - y23_29 - y31_51 - y23_47 - y4_43 - y13_30 - y4_61 - y16_26 - y1_37 - y37_58 - y1_46 - y5_7 - y38_41 - y46_54 - y9_14 - y49_50 - y7_44 - y15_57 - y19_27 - y8_36 - y42_47 - y11_41 - y0_50 - y12_15 - y20_28 - y0_59 - y23_24 - y4_20 - y34_48 - y53_61 - y37_44 - y3_51 - y37_53 - y16_30 - y14_60 - y46_49 - y15_43 - y57_58 - y7_39 - y15_52 - y38_54 - y18_48 - y8_13 - y15_61 - y27_35 - y11_18 - y27_44 - y11_27 - y19_40 - y30_40 - y19_49 - y30_58 - y12_19 - y52_55 - y31_32 - y44_60 - y23_37 - y1_9 - y1_18 - y14_46 - y34_61 - y14_55 - y26_29 - y5_6 - y26_47 - y7_43 - y11_13 - y7_61 - y8_35 - y19_35 - y30_35 - y11_49 - y44_46 - y10_53 - y44_55 - y4_28 - y34_38 - y1_13 - y3_32 - y34_47 - y45_47 - y3_41 - y37_43 - y34_56 - y3_50 - y14_59 - y26_42 - y26_51 - y8_30 - y44_50 - y2_44 - y3_27 - y14_36 - y37_38 - y45_51 - y7_15 - y15_28 - y7_24 - y18_24 - y26_37 - y36_60 - y26_46 - y29_39 - y11_12 - y29_48 - y19_25 - y6_55 - y10_34 - y33_36 - y41_49 - y33_45 - y25_41 - y44_54 - y3_13 - y3_22 - y3_31 - y3_40 - y14_40 - y14_49 - y36_46 - y36_55 - y47_55 - y26_32 - y28_51 - y7_28 - y29_34 - y6_41 - y40_43 - y21_48 - y10_29 - y25_27 - y33_40 - y3_17 - y22_30 - y22_39 - y3_44 - y36_41 - y15_18 - y7_14 - y47_50 - y7_23 - y5_53 - y9_60 - y6_36 - y29_38 - y40_47 - y6_54 - y10_15 - y10_24 - y10_33 - y33_35 - y2_29 - y2_38 - y10_51 - y2_56 - y14_30 - y55_58 - y28_41 - y47_54 - y5_48 - y9_46 - y6_22 - y6_31 - y29_33 - y21_29 - y29_42 - y21_38 - y10_19 - y39_55 - y20_60 - y25_26 - y31_60 - y25_35 - y13_39 - y24_39 - y35_48 - y14_25 - y16_53 - y36_40 - y17_36 - y36_49 - y47_58 - y17_54 - y28_54 - y9_50 - y5_61 - y6_26 - y9_59 - y21_24 - y6_35 - y21_33 - y21_42 - y39_50 - y2_10 - y10_23 - y2_19 - y10_32 - y23_60 - y2_37 - y4_56 - y3_11 - y32_47 - y24_43 - y32_56 - y43_56 - y24_52 - y35_52 - y16_48 - y1_59 - y13_61 - y17_40 - y5_47 - y9_45 - y9_54 - y6_30 - y8_58 - y19_58 - y42_60 - y10_18 - y23_46 - y20_59 - y54_61 - y24_29 - y32_42 - y51_55 - y13_38 - y35_38 - y32_51 - y16_34 - y13_47 - y24_47 - y1_54 - y35_56 - y36_39 - y38_58 - y28_44 - y6_7 - y6_16 - y27_57 - y30_53 - y0_49 - y39_40 - y23_32 - y20_45 - y12_41 - y2_18 - y20_54 - y23_50 - y1_22 - y32_37 - y1_31 - y16_29 - y1_40 - y13_42 - y1_49 - y24_51 - y5_10 - y38_44 - y46_57 - y38_53 - y49_53 - y17_30 - y28_30 - y9_35 - y6_11 - y19_39 - y50_54 - y42_50 - y27_61 - y0_44 - y42_59 - y20_22 - y12_18 - y4_41 - y12_54 - y1_17 - y13_19 - y4_50 - y1_35 - y35_37 - y46_52 - y15_46 - y46_61 - y57_61 - y26_55 - y18_51 - y7_60 - y27_38 - y30_34 - y8_43 - y11_39 - y0_57 - y11_57 - y12_22 - y20_35 - y23_40 - y23_49 - y4_45 - y13_23 - y53_59 - y1_39 - y5_9 - y46_47 - y38_43 - y15_50 - y38_52 - y7_55 - y18_55 - y19_20 - y27_33 - y8_38 - y0_34 - y11_43 - y8_56 - y19_56 - y20_21 - y11_61 - y12_26 - y23_26 - y4_22 - y44_58 - y23_35 - y4_40 - y53_54 - y1_25 - y56_59 - y3_53 - y37_55 - y15_45 - y26_45 - y7_41 - y26_54 - y8_15 - y27_28 - y7_59 - y27_37 - y0_20 - y11_20 - y11_29 - y8_42 - y19_42 - y11_38 - y19_51 - y30_51 - y4_8 - y25_58 - y22_34 - y1_11 - y14_39 - y3_48 - y22_61 - y3_57 - y15_22 - y7_27 - y18_27 - y38_42 - y18_36 - y18_45 - y8_10 - y0_6 - y19_28 - y0_24 - y19_37 - y21_56 - y11_33 - y33_39 - y41_52 - y4_12 - y4_21 - y10_55 - y22_29 - y3_34 - y14_34 - y22_47 - y34_49 - y3_43 - y14_43 - y22_56 - y3_52 - y15_17 - y3_61 - y7_22 - y7_31 - y15_44 - y26_44 - y7_40 - y0_1 - y18_49 - y48_50 - y29_46 - y8_23 - y40_55 - y21_60 - y25_30 - y33_43 - y33_52 - y44_52 - y25_57 - y22_33 - y34_35 - y14_29 - y22_42 - y3_38 - y14_38 - y22_51 - y3_56
 Subject to
C1: x0+x1-y0_1 <=1 
C2: x0+x3 <=1 
C3: x0+x4 <=1 
C4: x0+x6-y0_6 <=1 
C5: x0+x8 <=1 
C6: x0+x13 <=1 
C7: x0+x14 <=1 
C8: x0+x16 <=1 
C9: x0+x20-y0_20 <=1 
C10: x0+x21 <=1 
C11: x0+x24-y0_24 <=1 
C12: x0+x26 <=1 
C13: x0+x27 <=1 
C14: x0+x29 <=1 
C15: x0+x32 <=1 
C16: x0+x33 <=1 
C17: x0+x34-y0_34 <=1 
C18: x0+x36 <=1 
C19: x0+x40 <=1 
C20: x0+x43 <=1 
C21: x0+x44-y0_44 <=1 
C22: x0+x48 <=1 
C23: x0+x49-y0_49 <=1 
C24: x0+x50-y0_50 <=1 
C25: x0+x51 <=1 
C26: x0+x52 <=1 
C27: x0+x53 <=1 
C28: x0+x55-y0_55 <=1 
C29: x0+x57-y0_57 <=1 
C30: x0+x59-y0_59 <=1 
C31: x0+x60 <=1 
C32: x1+x3 <=1 
C33: x1+x6 <=1 
C34: x1+x8 <=1 
C35: x1+x9-y1_9 <=1 
C36: x1+x11-y1_11 <=1 
C37: x1+x13-y1_13 <=1 
C38: x1+x14 <=1 
C39: x1+x15 <=1 
C40: x1+x17-y1_17 <=1 
C41: x1+x18-y1_18 <=1 
C42: x1+x19 <=1 
C43: x1+x21 <=1 
C44: x1+x22-y1_22 <=1 
C45: x1+x24-y1_24 <=1 
C46: x1+x25-y1_25 <=1 
C47: x1+x27 <=1 
C48: x1+x28 <=1 
C49: x1+x30 <=1 
C50: x1+x31-y1_31 <=1 
C51: x1+x35-y1_35 <=1 
C52: x1+x36 <=1 
C53: x1+x37-y1_37 <=1 
C54: x1+x39-y1_39 <=1 
C55: x1+x40-y1_40 <=1 
C56: x1+x42 <=1 
C57: x1+x44 <=1 
C58: x1+x46-y1_46 <=1 
C59: x1+x47 <=1 
C60: x1+x49-y1_49 <=1 
C61: x1+x50 <=1 
C62: x1+x51 <=1 
C63: x1+x52-y1_52 <=1 
C64: x1+x53-y1_53 <=1 
C65: x1+x54-y1_54 <=1 
C66: x1+x57-y1_57 <=1 
C67: x1+x59-y1_59 <=1 
C68: x1+x61-y1_61 <=1 
C69: x2+x4 <=1 
C70: x2+x8 <=1 
C71: x2+x10-y2_10 <=1 
C72: x2+x13-y2_13 <=1 
C73: x2+x16-y2_16 <=1 
C74: x2+x17 <=1 
C75: x2+x18-y2_18 <=1 
C76: x2+x19-y2_19 <=1 
C77: x2+x20 <=1 
C78: x2+x23 <=1 
C79: x2+x25 <=1 
C80: x2+x26-y2_26 <=1 
C81: x2+x28 <=1 
C82: x2+x29-y2_29 <=1 
C83: x2+x30 <=1 
C84: x2+x35-y2_35 <=1 
C85: x2+x36-y2_36 <=1 
C86: x2+x37-y2_37 <=1 
C87: x2+x38-y2_38 <=1 
C88: x2+x40-y2_40 <=1 
C89: x2+x42 <=1 
C90: x2+x44-y2_44 <=1 
C91: x2+x47 <=1 
C92: x2+x48 <=1 
C93: x2+x50 <=1 
C94: x2+x53 <=1 
C95: x2+x54-y2_54 <=1 
C96: x2+x55 <=1 
C97: x2+x56-y2_56 <=1 
C98: x2+x59 <=1 
C99: x2+x61 <=1 
C100: x3+x4-y3_4 <=1 
C101: x3+x6 <=1 
C102: x3+x7 <=1 
C103: x3+x9 <=1 
C104: x3+x11-y3_11 <=1 
C105: x3+x12 <=1 
C106: x3+x13-y3_13 <=1 
C107: x3+x14-y3_14 <=1 
C108: x3+x16 <=1 
C109: x3+x17-y3_17 <=1 
C110: x3+x18 <=1 
C111: x3+x19-y3_19 <=1 
C112: x3+x20 <=1 
C113: x3+x22-y3_22 <=1 
C114: x3+x24 <=1 
C115: x3+x25 <=1 
C116: x3+x26 <=1 
C117: x3+x27-y3_27 <=1 
C118: x3+x28 <=1 
C119: x3+x30 <=1 
C120: x3+x31-y3_31 <=1 
C121: x3+x32-y3_32 <=1 
C122: x3+x33-y3_33 <=1 
C123: x3+x34-y3_34 <=1 
C124: x3+x35 <=1 
C125: x3+x38-y3_38 <=1 
C126: x3+x39 <=1 
C127: x3+x40-y3_40 <=1 
C128: x3+x41-y3_41 <=1 
C129: x3+x43-y3_43 <=1 
C130: x3+x44-y3_44 <=1 
C131: x3+x45 <=1 
C132: x3+x47 <=1 
C133: x3+x48-y3_48 <=1 
C134: x3+x50-y3_50 <=1 
C135: x3+x51-y3_51 <=1 
C136: x3+x52-y3_52 <=1 
C137: x3+x53-y3_53 <=1 
C138: x3+x54 <=1 
C139: x3+x56-y3_56 <=1 
C140: x3+x57-y3_57 <=1 
C141: x3+x61-y3_61 <=1 
C142: x4+x5 <=1 
C143: x4+x6 <=1 
C144: x4+x8-y4_8 <=1 
C145: x4+x9 <=1 
C146: x4+x10 <=1 
C147: x4+x12-y4_12 <=1 
C148: x4+x13 <=1 
C149: x4+x14 <=1 
C150: x4+x16 <=1 
C151: x4+x19 <=1 
C152: x4+x20-y4_20 <=1 
C153: x4+x21-y4_21 <=1 
C154: x4+x22-y4_22 <=1 
C155: x4+x28-y4_28 <=1 
C156: x4+x30 <=1 
C157: x4+x32 <=1 
C158: x4+x33 <=1 
C159: x4+x35 <=1 
C160: x4+x36 <=1 
C161: x4+x39 <=1 
C162: x4+x40-y4_40 <=1 
C163: x4+x41-y4_41 <=1 
C164: x4+x42 <=1 
C165: x4+x43-y4_43 <=1 
C166: x4+x44-y4_44 <=1 
C167: x4+x45-y4_45 <=1 
C168: x4+x48-y4_48 <=1 
C169: x4+x49-y4_49 <=1 
C170: x4+x50-y4_50 <=1 
C171: x4+x51 <=1 
C172: x4+x52 <=1 
C173: x4+x56-y4_56 <=1 
C174: x4+x61-y4_61 <=1 
C175: x5+x6-y5_6 <=1 
C176: x5+x7-y5_7 <=1 
C177: x5+x9-y5_9 <=1 
C178: x5+x10-y5_10 <=1 
C179: x5+x11 <=1 
C180: x5+x14 <=1 
C181: x5+x15 <=1 
C182: x5+x16 <=1 
C183: x5+x18 <=1 
C184: x5+x23 <=1 
C185: x5+x25 <=1 
C186: x5+x27-y5_27 <=1 
C187: x5+x28 <=1 
C188: x5+x29 <=1 
C189: x5+x30 <=1 
C190: x5+x34 <=1 
C191: x5+x35-y5_35 <=1 
C192: x5+x40-y5_40 <=1 
C193: x5+x41-y5_41 <=1 
C194: x5+x42 <=1 
C195: x5+x47-y5_47 <=1 
C196: x5+x48-y5_48 <=1 
C197: x5+x49 <=1 
C198: x5+x50 <=1 
C199: x5+x52 <=1 
C200: x5+x53-y5_53 <=1 
C201: x5+x54 <=1 
C202: x5+x55 <=1 
C203: x5+x58 <=1 
C204: x5+x59 <=1 
C205: x5+x60-y5_60 <=1 
C206: x5+x61-y5_61 <=1 
C207: x6+x7-y6_7 <=1 
C208: x6+x9 <=1 
C209: x6+x11-y6_11 <=1 
C210: x6+x14-y6_14 <=1 
C211: x6+x15-y6_15 <=1 
C212: x6+x16-y6_16 <=1 
C213: x6+x17 <=1 
C214: x6+x18 <=1 
C215: x6+x19 <=1 
C216: x6+x22-y6_22 <=1 
C217: x6+x24-y6_24 <=1 
C218: x6+x26-y6_26 <=1 
C219: x6+x27 <=1 
C220: x6+x28 <=1 
C221: x6+x29 <=1 
C222: x6+x30-y6_30 <=1 
C223: x6+x31-y6_31 <=1 
C224: x6+x33-y6_33 <=1 
C225: x6+x34-y6_34 <=1 
C226: x6+x35-y6_35 <=1 
C227: x6+x36-y6_36 <=1 
C228: x6+x41-y6_41 <=1 
C229: x6+x42-y6_42 <=1 
C230: x6+x43 <=1 
C231: x6+x46 <=1 
C232: x6+x51-y6_51 <=1 
C233: x6+x54-y6_54 <=1 
C234: x6+x55-y6_55 <=1 
C235: x6+x57 <=1 
C236: x6+x58 <=1 
C237: x6+x59 <=1 
C238: x6+x60 <=1 
C239: x6+x61-y6_61 <=1 
C240: x7+x9 <=1 
C241: x7+x10 <=1 
C242: x7+x11-y7_11 <=1 
C243: x7+x12-y7_12 <=1 
C244: x7+x14-y7_14 <=1 
C245: x7+x15-y7_15 <=1 
C246: x7+x16-y7_16 <=1 
C247: x7+x19 <=1 
C248: x7+x20 <=1 
C249: x7+x21 <=1 
C250: x7+x22-y7_22 <=1 
C251: x7+x23-y7_23 <=1 
C252: x7+x24-y7_24 <=1 
C253: x7+x27-y7_27 <=1 
C254: x7+x28-y7_28 <=1 
C255: x7+x29 <=1 
C256: x7+x31-y7_31 <=1 
C257: x7+x32 <=1 
C258: x7+x33 <=1 
C259: x7+x37 <=1 
C260: x7+x39-y7_39 <=1 
C261: x7+x40-y7_40 <=1 
C262: x7+x41-y7_41 <=1 
C263: x7+x42 <=1 
C264: x7+x43-y7_43 <=1 
C265: x7+x44-y7_44 <=1 
C266: x7+x45 <=1 
C267: x7+x51 <=1 
C268: x7+x52 <=1 
C269: x7+x53 <=1 
C270: x7+x54 <=1 
C271: x7+x55-y7_55 <=1 
C272: x7+x57 <=1 
C273: x7+x59-y7_59 <=1 
C274: x7+x60-y7_60 <=1 
C275: x7+x61-y7_61 <=1 
C276: x8+x9 <=1 
C277: x8+x10-y8_10 <=1 
C278: x8+x13-y8_13 <=1 
C279: x8+x14 <=1 
C280: x8+x15-y8_15 <=1 
C281: x8+x17 <=1 
C282: x8+x19 <=1 
C283: x8+x22 <=1 
C284: x8+x23-y8_23 <=1 
C285: x8+x25 <=1 
C286: x8+x26 <=1 
C287: x8+x28 <=1 
C288: x8+x30-y8_30 <=1 
C289: x8+x31 <=1 
C290: x8+x32-y8_32 <=1 
C291: x8+x35-y8_35 <=1 
C292: x8+x36-y8_36 <=1 
C293: x8+x38-y8_38 <=1 
C294: x8+x40 <=1 
C295: x8+x41-y8_41 <=1 
C296: x8+x42-y8_42 <=1 
C297: x8+x43-y8_43 <=1 
C298: x8+x46-y8_46 <=1 
C299: x8+x49 <=1 
C300: x8+x52 <=1 
C301: x8+x55 <=1 
C302: x8+x56-y8_56 <=1 
C303: x8+x58-y8_58 <=1 
C304: x8+x61 <=1 
C305: x9+x11-y9_11 <=1 
C306: x9+x12 <=1 
C307: x9+x14-y9_14 <=1 
C308: x9+x17 <=1 
C309: x9+x20 <=1 
C310: x9+x25-y9_25 <=1 
C311: x9+x28-y9_28 <=1 
C312: x9+x29 <=1 
C313: x9+x32 <=1 
C314: x9+x33 <=1 
C315: x9+x34 <=1 
C316: x9+x35-y9_35 <=1 
C317: x9+x36 <=1 
C318: x9+x38-y9_38 <=1 
C319: x9+x39-y9_39 <=1 
C320: x9+x40 <=1 
C321: x9+x41 <=1 
C322: x9+x43-y9_43 <=1 
C323: x9+x44-y9_44 <=1 
C324: x9+x45-y9_45 <=1 
C325: x9+x46-y9_46 <=1 
C326: x9+x49 <=1 
C327: x9+x50-y9_50 <=1 
C328: x9+x51 <=1 
C329: x9+x54-y9_54 <=1 
C330: x9+x56 <=1 
C331: x9+x58-y9_58 <=1 
C332: x9+x59-y9_59 <=1 
C333: x9+x60-y9_60 <=1 
C334: x10+x11-y10_11 <=1 
C335: x10+x12 <=1 
C336: x10+x15-y10_15 <=1 
C337: x10+x16 <=1 
C338: x10+x17 <=1 
C339: x10+x18-y10_18 <=1 
C340: x10+x19-y10_19 <=1 
C341: x10+x21-y10_21 <=1 
C342: x10+x22-y10_22 <=1 
C343: x10+x23-y10_23 <=1 
C344: x10+x24-y10_24 <=1 
C345: x10+x25-y10_25 <=1 
C346: x10+x29-y10_29 <=1 
C347: x10+x30-y10_30 <=1 
C348: x10+x32-y10_32 <=1 
C349: x10+x33-y10_33 <=1 
C350: x10+x34-y10_34 <=1 
C351: x10+x36 <=1 
C352: x10+x38 <=1 
C353: x10+x39 <=1 
C354: x10+x40-y10_40 <=1 
C355: x10+x43 <=1 
C356: x10+x44 <=1 
C357: x10+x45-y10_45 <=1 
C358: x10+x46 <=1 
C359: x10+x48 <=1 
C360: x10+x51-y10_51 <=1 
C361: x10+x52 <=1 
C362: x10+x53-y10_53 <=1 
C363: x10+x54-y10_54 <=1 
C364: x10+x55-y10_55 <=1 
C365: x10+x56 <=1 
C366: x10+x58-y10_58 <=1 
C367: x10+x60 <=1 
C368: x11+x12-y11_12 <=1 
C369: x11+x13-y11_13 <=1 
C370: x11+x14 <=1 
C371: x11+x15 <=1 
C372: x11+x18-y11_18 <=1 
C373: x11+x19 <=1 
C374: x11+x20-y11_20 <=1 
C375: x11+x25 <=1 
C376: x11+x27-y11_27 <=1 
C377: x11+x28 <=1 
C378: x11+x29-y11_29 <=1 
C379: x11+x30 <=1 
C380: x11+x31 <=1 
C381: x11+x32 <=1 
C382: x11+x33-y11_33 <=1 
C383: x11+x34 <=1 
C384: x11+x35 <=1 
C385: x11+x37 <=1 
C386: x11+x38-y11_38 <=1 
C387: x11+x39-y11_39 <=1 
C388: x11+x41-y11_41 <=1 
C389: x11+x42 <=1 
C390: x11+x43-y11_43 <=1 
C391: x11+x45 <=1 
C392: x11+x47 <=1 
C393: x11+x49-y11_49 <=1 
C394: x11+x51-y11_51 <=1 
C395: x11+x52 <=1 
C396: x11+x57-y11_57 <=1 
C397: x11+x58 <=1 
C398: x11+x59 <=1 
C399: x11+x60-y11_60 <=1 
C400: x11+x61-y11_61 <=1 
C401: x12+x13 <=1 
C402: x12+x15-y12_15 <=1 
C403: x12+x16 <=1 
C404: x12+x17 <=1 
C405: x12+x18-y12_18 <=1 
C406: x12+x19-y12_19 <=1 
C407: x12+x22-y12_22 <=1 
C408: x12+x24 <=1 
C409: x12+x25 <=1 
C410: x12+x26-y12_26 <=1 
C411: x12+x29 <=1 
C412: x12+x31 <=1 
C413: x12+x32 <=1 
C414: x12+x34-y12_34 <=1 
C415: x12+x36 <=1 
C416: x12+x39-y12_39 <=1 
C417: x12+x41-y12_41 <=1 
C418: x12+x45 <=1 
C419: x12+x46 <=1 
C420: x12+x47 <=1 
C421: x12+x49 <=1 
C422: x12+x50 <=1 
C423: x12+x52 <=1 
C424: x12+x54-y12_54 <=1 
C425: x12+x59 <=1 
C426: x12+x61 <=1 
C427: x13+x14 <=1 
C428: x13+x16 <=1 
C429: x13+x19-y13_19 <=1 
C430: x13+x23-y13_23 <=1 
C431: x13+x25 <=1 
C432: x13+x26 <=1 
C433: x13+x28 <=1 
C434: x13+x30-y13_30 <=1 
C435: x13+x31 <=1 
C436: x13+x35 <=1 
C437: x13+x36-y13_36 <=1 
C438: x13+x37 <=1 
C439: x13+x38-y13_38 <=1 
C440: x13+x39-y13_39 <=1 
C441: x13+x40 <=1 
C442: x13+x42-y13_42 <=1 
C443: x13+x45 <=1 
C444: x13+x46 <=1 
C445: x13+x47-y13_47 <=1 
C446: x13+x49 <=1 
C447: x13+x52 <=1 
C448: x13+x60-y13_60 <=1 
C449: x13+x61-y13_61 <=1 
C450: x14+x17 <=1 
C451: x14+x18-y14_18 <=1 
C452: x14+x19-y14_19 <=1 
C453: x14+x20 <=1 
C454: x14+x23 <=1 
C455: x14+x24 <=1 
C456: x14+x25-y14_25 <=1 
C457: x14+x29-y14_29 <=1 
C458: x14+x30-y14_30 <=1 
C459: x14+x32 <=1 
C460: x14+x34-y14_34 <=1 
C461: x14+x35 <=1 
C462: x14+x36-y14_36 <=1 
C463: x14+x38-y14_38 <=1 
C464: x14+x39-y14_39 <=1 
C465: x14+x40-y14_40 <=1 
C466: x14+x42-y14_42 <=1 
C467: x14+x43-y14_43 <=1 
C468: x14+x44 <=1 
C469: x14+x45 <=1 
C470: x14+x46-y14_46 <=1 
C471: x14+x48 <=1 
C472: x14+x49-y14_49 <=1 
C473: x14+x54 <=1 
C474: x14+x55-y14_55 <=1 
C475: x14+x59-y14_59 <=1 
C476: x14+x60-y14_60 <=1 
C477: x14+x61 <=1 
C478: x15+x16-y15_16 <=1 
C479: x15+x17-y15_17 <=1 
C480: x15+x18-y15_18 <=1 
C481: x15+x19 <=1 
C482: x15+x21 <=1 
C483: x15+x22-y15_22 <=1 
C484: x15+x25-y15_25 <=1 
C485: x15+x27 <=1 
C486: x15+x28-y15_28 <=1 
C487: x15+x30 <=1 
C488: x15+x32 <=1 
C489: x15+x34 <=1 
C490: x15+x37 <=1 
C491: x15+x38 <=1 
C492: x15+x39-y15_39 <=1 
C493: x15+x40 <=1 
C494: x15+x41 <=1 
C495: x15+x42 <=1 
C496: x15+x43-y15_43 <=1 
C497: x15+x44-y15_44 <=1 
C498: x15+x45-y15_45 <=1 
C499: x15+x46-y15_46 <=1 
C500: x15+x48 <=1 
C501: x15+x50-y15_50 <=1 
C502: x15+x51 <=1 
C503: x15+x52-y15_52 <=1 
C504: x15+x54 <=1 
C505: x15+x56 <=1 
C506: x15+x57-y15_57 <=1 
C507: x15+x59 <=1 
C508: x15+x60 <=1 
C509: x15+x61-y15_61 <=1 
C510: x16+x19 <=1 
C511: x16+x21 <=1 
C512: x16+x23 <=1 
C513: x16+x25 <=1 
C514: x16+x26-y16_26 <=1 
C515: x16+x28 <=1 
C516: x16+x29-y16_29 <=1 
C517: x16+x30-y16_30 <=1 
C518: x16+x32-y16_32 <=1 
C519: x16+x34-y16_34 <=1 
C520: x16+x38 <=1 
C521: x16+x39 <=1 
C522: x16+x44 <=1 
C523: x16+x46 <=1 
C524: x16+x47 <=1 
C525: x16+x48-y16_48 <=1 
C526: x16+x50-y16_50 <=1 
C527: x16+x53-y16_53 <=1 
C528: x16+x54 <=1 
C529: x16+x55 <=1 
C530: x16+x56-y16_56 <=1 
C531: x16+x57 <=1 
C532: x16+x60 <=1 
C533: x16+x61 <=1 
C534: x17+x20 <=1 
C535: x17+x22 <=1 
C536: x17+x23-y17_23 <=1 
C537: x17+x26 <=1 
C538: x17+x29 <=1 
C539: x17+x30-y17_30 <=1 
C540: x17+x36-y17_36 <=1 
C541: x17+x37 <=1 
C542: x17+x40-y17_40 <=1 
C543: x17+x42 <=1 
C544: x17+x43 <=1 
C545: x17+x45 <=1 
C546: x17+x46 <=1 
C547: x17+x48 <=1 
C548: x17+x52 <=1 
C549: x17+x54-y17_54 <=1 
C550: x17+x57-y17_57 <=1 
C551: x17+x59 <=1 
C552: x17+x61-y17_61 <=1 
C553: x18+x19 <=1 
C554: x18+x20 <=1 
C555: x18+x21 <=1 
C556: x18+x23 <=1 
C557: x18+x24-y18_24 <=1 
C558: x18+x27-y18_27 <=1 
C559: x18+x28 <=1 
C560: x18+x31 <=1 
C561: x18+x34 <=1 
C562: x18+x35 <=1 
C563: x18+x36-y18_36 <=1 
C564: x18+x42 <=1 
C565: x18+x43 <=1 
C566: x18+x44 <=1 
C567: x18+x45-y18_45 <=1 
C568: x18+x46 <=1 
C569: x18+x47 <=1 
C570: x18+x48-y18_48 <=1 
C571: x18+x49-y18_49 <=1 
C572: x18+x50 <=1 
C573: x18+x51-y18_51 <=1 
C574: x18+x53 <=1 
C575: x18+x55-y18_55 <=1 
C576: x18+x56 <=1 
C577: x18+x58 <=1 
C578: x18+x60 <=1 
C579: x18+x61 <=1 
C580: x19+x20-y19_20 <=1 
C581: x19+x21 <=1 
C582: x19+x22 <=1 
C583: x19+x25-y19_25 <=1 
C584: x19+x27-y19_27 <=1 
C585: x19+x28-y19_28 <=1 
C586: x19+x30 <=1 
C587: x19+x31 <=1 
C588: x19+x32-y19_32 <=1 
C589: x19+x35-y19_35 <=1 
C590: x19+x36 <=1 
C591: x19+x37-y19_37 <=1 
C592: x19+x39-y19_39 <=1 
C593: x19+x40-y19_40 <=1 
C594: x19+x41-y19_41 <=1 
C595: x19+x42-y19_42 <=1 
C596: x19+x45 <=1 
C597: x19+x46-y19_46 <=1 
C598: x19+x47 <=1 
C599: x19+x49-y19_49 <=1 
C600: x19+x51-y19_51 <=1 
C601: x19+x53 <=1 
C602: x19+x55 <=1 
C603: x19+x56-y19_56 <=1 
C604: x19+x57 <=1 
C605: x19+x58-y19_58 <=1 
C606: x19+x59 <=1 
C607: x19+x60-y19_60 <=1 
C608: x20+x21-y20_21 <=1 
C609: x20+x22-y20_22 <=1 
C610: x20+x25 <=1 
C611: x20+x28-y20_28 <=1 
C612: x20+x29-y20_29 <=1 
C613: x20+x33-y20_33 <=1 
C614: x20+x34-y20_34 <=1 
C615: x20+x35-y20_35 <=1 
C616: x20+x38 <=1 
C617: x20+x40 <=1 
C618: x20+x42 <=1 
C619: x20+x43 <=1 
C620: x20+x45-y20_45 <=1 
C621: x20+x46 <=1 
C622: x20+x49 <=1 
C623: x20+x51 <=1 
C624: x20+x52-y20_52 <=1 
C625: x20+x54-y20_54 <=1 
C626: x20+x56 <=1 
C627: x20+x59-y20_59 <=1 
C628: x20+x60-y20_60 <=1 
C629: x21+x22-y21_22 <=1 
C630: x21+x24-y21_24 <=1 
C631: x21+x29-y21_29 <=1 
C632: x21+x30-y21_30 <=1 
C633: x21+x32 <=1 
C634: x21+x33-y21_33 <=1 
C635: x21+x34 <=1 
C636: x21+x35 <=1 
C637: x21+x37 <=1 
C638: x21+x38-y21_38 <=1 
C639: x21+x40 <=1 
C640: x21+x42-y21_42 <=1 
C641: x21+x43 <=1 
C642: x21+x44 <=1 
C643: x21+x45 <=1 
C644: x21+x46-y21_46 <=1 
C645: x21+x48-y21_48 <=1 
C646: x21+x49-y21_49 <=1 
C647: x21+x50 <=1 
C648: x21+x52 <=1 
C649: x21+x53 <=1 
C650: x21+x54 <=1 
C651: x21+x55 <=1 
C652: x21+x56-y21_56 <=1 
C653: x21+x57 <=1 
C654: x21+x58 <=1 
C655: x21+x59-y21_59 <=1 
C656: x21+x60-y21_60 <=1 
C657: x22+x23-y22_23 <=1 
C658: x22+x28-y22_28 <=1 
C659: x22+x29-y22_29 <=1 
C660: x22+x30-y22_30 <=1 
C661: x22+x33-y22_33 <=1 
C662: x22+x34-y22_34 <=1 
C663: x22+x36 <=1 
C664: x22+x39-y22_39 <=1 
C665: x22+x41 <=1 
C666: x22+x42-y22_42 <=1 
C667: x22+x43 <=1 
C668: x22+x47-y22_47 <=1 
C669: x22+x49 <=1 
C670: x22+x51-y22_51 <=1 
C671: x22+x56-y22_56 <=1 
C672: x22+x61-y22_61 <=1 
C673: x23+x24-y23_24 <=1 
C674: x23+x25-y23_25 <=1 
C675: x23+x26-y23_26 <=1 
C676: x23+x28 <=1 
C677: x23+x29-y23_29 <=1 
C678: x23+x31 <=1 
C679: x23+x32-y23_32 <=1 
C680: x23+x34 <=1 
C681: x23+x35-y23_35 <=1 
C682: x23+x36 <=1 
C683: x23+x37-y23_37 <=1 
C684: x23+x38 <=1 
C685: x23+x39-y23_39 <=1 
C686: x23+x40-y23_40 <=1 
C687: x23+x41 <=1 
C688: x23+x43 <=1 
C689: x23+x44 <=1 
C690: x23+x46-y23_46 <=1 
C691: x23+x47-y23_47 <=1 
C692: x23+x49-y23_49 <=1 
C693: x23+x50-y23_50 <=1 
C694: x23+x52-y23_52 <=1 
C695: x23+x58 <=1 
C696: x23+x60-y23_60 <=1 
C697: x24+x26 <=1 
C698: x24+x27 <=1 
C699: x24+x29-y24_29 <=1 
C700: x24+x30 <=1 
C701: x24+x31-y24_31 <=1 
C702: x24+x32 <=1 
C703: x24+x34 <=1 
C704: x24+x36 <=1 
C705: x24+x38 <=1 
C706: x24+x39-y24_39 <=1 
C707: x24+x40 <=1 
C708: x24+x43-y24_43 <=1 
C709: x24+x46-y24_46 <=1 
C710: x24+x47-y24_47 <=1 
C711: x24+x50 <=1 
C712: x24+x51-y24_51 <=1 
C713: x24+x52-y24_52 <=1 
C714: x24+x55-y24_55 <=1 
C715: x24+x57 <=1 
C716: x24+x58 <=1 
C717: x25+x26-y25_26 <=1 
C718: x25+x27-y25_27 <=1 
C719: x25+x30-y25_30 <=1 
C720: x25+x35-y25_35 <=1 
C721: x25+x38 <=1 
C722: x25+x41-y25_41 <=1 
C723: x25+x44 <=1 
C724: x25+x45 <=1 
C725: x25+x47-y25_47 <=1 
C726: x25+x48 <=1 
C727: x25+x50 <=1 
C728: x25+x51 <=1 
C729: x25+x55 <=1 
C730: x25+x57-y25_57 <=1 
C731: x25+x58-y25_58 <=1 
C732: x25+x59 <=1 
C733: x25+x60 <=1 
C734: x26+x28 <=1 
C735: x26+x29-y26_29 <=1 
C736: x26+x32-y26_32 <=1 
C737: x26+x33 <=1 
C738: x26+x34 <=1 
C739: x26+x36 <=1 
C740: x26+x37-y26_37 <=1 
C741: x26+x39-y26_39 <=1 
C742: x26+x42-y26_42 <=1 
C743: x26+x43 <=1 
C744: x26+x44-y26_44 <=1 
C745: x26+x45-y26_45 <=1 
C746: x26+x46-y26_46 <=1 
C747: x26+x47-y26_47 <=1 
C748: x26+x48 <=1 
C749: x26+x50 <=1 
C750: x26+x51-y26_51 <=1 
C751: x26+x53-y26_53 <=1 
C752: x26+x54-y26_54 <=1 
C753: x26+x55-y26_55 <=1 
C754: x26+x58 <=1 
C755: x26+x61 <=1 
C756: x27+x28-y27_28 <=1 
C757: x27+x31 <=1 
C758: x27+x33-y27_33 <=1 
C759: x27+x34 <=1 
C760: x27+x35-y27_35 <=1 
C761: x27+x36-y27_36 <=1 
C762: x27+x37-y27_37 <=1 
C763: x27+x38-y27_38 <=1 
C764: x27+x40 <=1 
C765: x27+x41-y27_41 <=1 
C766: x27+x42 <=1 
C767: x27+x44-y27_44 <=1 
C768: x27+x45-y27_45 <=1 
C769: x27+x49 <=1 
C770: x27+x50 <=1 
C771: x27+x51 <=1 
C772: x27+x57-y27_57 <=1 
C773: x27+x59 <=1 
C774: x27+x61-y27_61 <=1 
C775: x28+x29-y28_29 <=1 
C776: x28+x30-y28_30 <=1 
C777: x28+x32 <=1 
C778: x28+x33 <=1 
C779: x28+x35 <=1 
C780: x28+x37 <=1 
C781: x28+x38 <=1 
C782: x28+x40 <=1 
C783: x28+x41-y28_41 <=1 
C784: x28+x42-y28_42 <=1 
C785: x28+x43 <=1 
C786: x28+x44-y28_44 <=1 
C787: x28+x46 <=1 
C788: x28+x47-y28_47 <=1 
C789: x28+x50 <=1 
C790: x28+x51-y28_51 <=1 
C791: x28+x52 <=1 
C792: x28+x53-y28_53 <=1 
C793: x28+x54-y28_54 <=1 
C794: x28+x55 <=1 
C795: x28+x56-y28_56 <=1 
C796: x28+x57-y28_57 <=1 
C797: x28+x58 <=1 
C798: x28+x59 <=1 
C799: x29+x32 <=1 
C800: x29+x33-y29_33 <=1 
C801: x29+x34-y29_34 <=1 
C802: x29+x36 <=1 
C803: x29+x37 <=1 
C804: x29+x38-y29_38 <=1 
C805: x29+x39-y29_39 <=1 
C806: x29+x40-y29_40 <=1 
C807: x29+x41 <=1 
C808: x29+x42-y29_42 <=1 
C809: x29+x43 <=1 
C810: x29+x44 <=1 
C811: x29+x45 <=1 
C812: x29+x46-y29_46 <=1 
C813: x29+x47 <=1 
C814: x29+x48-y29_48 <=1 
C815: x29+x51 <=1 
C816: x29+x52 <=1 
C817: x29+x56 <=1 
C818: x29+x57 <=1 
C819: x29+x59 <=1 
C820: x29+x61 <=1 
C821: x30+x32 <=1 
C822: x30+x33 <=1 
C823: x30+x34-y30_34 <=1 
C824: x30+x35-y30_35 <=1 
C825: x30+x36 <=1 
C826: x30+x40-y30_40 <=1 
C827: x30+x43 <=1 
C828: x30+x44 <=1 
C829: x30+x45 <=1 
C830: x30+x46-y30_46 <=1 
C831: x30+x47 <=1 
C832: x30+x48 <=1 
C833: x30+x51-y30_51 <=1 
C834: x30+x52 <=1 
C835: x30+x53-y30_53 <=1 
C836: x30+x55-y30_55 <=1 
C837: x30+x56 <=1 
C838: x30+x57 <=1 
C839: x30+x58-y30_58 <=1 
C840: x30+x60 <=1 
C841: x31+x32-y31_32 <=1 
C842: x31+x33-y31_33 <=1 
C843: x31+x36 <=1 
C844: x31+x37 <=1 
C845: x31+x38 <=1 
C846: x31+x39 <=1 
C847: x31+x40 <=1 
C848: x31+x43 <=1 
C849: x31+x47-y31_47 <=1 
C850: x31+x49 <=1 
C851: x31+x51-y31_51 <=1 
C852: x31+x52-y31_52 <=1 
C853: x31+x53-y31_53 <=1 
C854: x31+x58 <=1 
C855: x31+x60-y31_60 <=1 
C856: x31+x61 <=1 
C857: x32+x34 <=1 
C858: x32+x35-y32_35 <=1 
C859: x32+x37-y32_37 <=1 
C860: x32+x39-y32_39 <=1 
C861: x32+x40-y32_40 <=1 
C862: x32+x41-y32_41 <=1 
C863: x32+x42-y32_42 <=1 
C864: x32+x43 <=1 
C865: x32+x45 <=1 
C866: x32+x47-y32_47 <=1 
C867: x32+x49-y32_49 <=1 
C868: x32+x50 <=1 
C869: x32+x51-y32_51 <=1 
C870: x32+x55 <=1 
C871: x32+x56-y32_56 <=1 
C872: x32+x58 <=1 
C873: x32+x59 <=1 
C874: x32+x60 <=1 
C875: x33+x35-y33_35 <=1 
C876: x33+x36-y33_36 <=1 
C877: x33+x37 <=1 
C878: x33+x38 <=1 
C879: x33+x39-y33_39 <=1 
C880: x33+x40-y33_40 <=1 
C881: x33+x41 <=1 
C882: x33+x43-y33_43 <=1 
C883: x33+x44 <=1 
C884: x33+x45-y33_45 <=1 
C885: x33+x46 <=1 
C886: x33+x49 <=1 
C887: x33+x51 <=1 
C888: x33+x52-y33_52 <=1 
C889: x33+x54 <=1 
C890: x33+x55 <=1 
C891: x33+x59 <=1 
C892: x33+x61 <=1 
C893: x34+x35-y34_35 <=1 
C894: x34+x36 <=1 
C895: x34+x37 <=1 
C896: x34+x38-y34_38 <=1 
C897: x34+x39 <=1 
C898: x34+x42 <=1 
C899: x34+x45 <=1 
C900: x34+x47-y34_47 <=1 
C901: x34+x48-y34_48 <=1 
C902: x34+x49-y34_49 <=1 
C903: x34+x50 <=1 
C904: x34+x51 <=1 
C905: x34+x55 <=1 
C906: x34+x56-y34_56 <=1 
C907: x34+x57 <=1 
C908: x34+x59 <=1 
C909: x34+x61-y34_61 <=1 
C910: x35+x37-y35_37 <=1 
C911: x35+x38-y35_38 <=1 
C912: x35+x40 <=1 
C913: x35+x41-y35_41 <=1 
C914: x35+x43 <=1 
C915: x35+x45 <=1 
C916: x35+x48-y35_48 <=1 
C917: x35+x50-y35_50 <=1 
C918: x35+x51 <=1 
C919: x35+x52-y35_52 <=1 
C920: x35+x54-y35_54 <=1 
C921: x35+x55-y35_55 <=1 
C922: x35+x56-y35_56 <=1 
C923: x35+x58 <=1 
C924: x35+x59-y35_59 <=1 
C925: x35+x60 <=1 
C926: x35+x61 <=1 
C927: x36+x38-y36_38 <=1 
C928: x36+x39-y36_39 <=1 
C929: x36+x40-y36_40 <=1 
C930: x36+x41-y36_41 <=1 
C931: x36+x42 <=1 
C932: x36+x43 <=1 
C933: x36+x44 <=1 
C934: x36+x46-y36_46 <=1 
C935: x36+x49-y36_49 <=1 
C936: x36+x52 <=1 
C937: x36+x53 <=1 
C938: x36+x55-y36_55 <=1 
C939: x36+x58 <=1 
C940: x36+x60-y36_60 <=1 
C941: x36+x61 <=1 
C942: x37+x38-y37_38 <=1 
C943: x37+x43-y37_43 <=1 
C944: x37+x44-y37_44 <=1 
C945: x37+x45 <=1 
C946: x37+x48 <=1 
C947: x37+x50 <=1 
C948: x37+x51 <=1 
C949: x37+x53-y37_53 <=1 
C950: x37+x55-y37_55 <=1 
C951: x37+x58-y37_58 <=1 
C952: x37+x59 <=1 
C953: x38+x41-y38_41 <=1 
C954: x38+x42-y38_42 <=1 
C955: x38+x43-y38_43 <=1 
C956: x38+x44-y38_44 <=1 
C957: x38+x46-y38_46 <=1 
C958: x38+x50 <=1 
C959: x38+x51-y38_51 <=1 
C960: x38+x52-y38_52 <=1 
C961: x38+x53-y38_53 <=1 
C962: x38+x54-y38_54 <=1 
C963: x38+x56 <=1 
C964: x38+x57 <=1 
C965: x38+x58-y38_58 <=1 
C966: x38+x60-y38_60 <=1 
C967: x38+x61 <=1 
C968: x39+x40-y39_40 <=1 
C969: x39+x41 <=1 
C970: x39+x45 <=1 
C971: x39+x46-y39_46 <=1 
C972: x39+x47-y39_47 <=1 
C973: x39+x49 <=1 
C974: x39+x50-y39_50 <=1 
C975: x39+x51-y39_51 <=1 
C976: x39+x52-y39_52 <=1 
C977: x39+x53 <=1 
C978: x39+x55-y39_55 <=1 
C979: x39+x59 <=1 
C980: x39+x61 <=1 
C981: x40+x42 <=1 
C982: x40+x43-y40_43 <=1 
C983: x40+x44-y40_44 <=1 
C984: x40+x47-y40_47 <=1 
C985: x40+x55-y40_55 <=1 
C986: x40+x56 <=1 
C987: x40+x58-y40_58 <=1 
C988: x40+x61 <=1 
C989: x41+x42-y41_42 <=1 
C990: x41+x44 <=1 
C991: x41+x45 <=1 
C992: x41+x49-y41_49 <=1 
C993: x41+x50 <=1 
C994: x41+x51 <=1 
C995: x41+x52-y41_52 <=1 
C996: x41+x55 <=1 
C997: x42+x43 <=1 
C998: x42+x46 <=1 
C999: x42+x47-y42_47 <=1 
C1000: x42+x48-y42_48 <=1 
C1001: x42+x50-y42_50 <=1 
C1002: x42+x53 <=1 
C1003: x42+x54 <=1 
C1004: x42+x57 <=1 
C1005: x42+x59-y42_59 <=1 
C1006: x42+x60-y42_60 <=1 
C1007: x42+x61-y42_61 <=1 
C1008: x43+x45-y43_45 <=1 
C1009: x43+x46 <=1 
C1010: x43+x48 <=1 
C1011: x43+x51 <=1 
C1012: x43+x53 <=1 
C1013: x43+x56-y43_56 <=1 
C1014: x43+x57 <=1 
C1015: x43+x60 <=1 
C1016: x44+x45 <=1 
C1017: x44+x46-y44_46 <=1 
C1018: x44+x47 <=1 
C1019: x44+x50-y44_50 <=1 
C1020: x44+x52-y44_52 <=1 
C1021: x44+x54-y44_54 <=1 
C1022: x44+x55-y44_55 <=1 
C1023: x44+x58-y44_58 <=1 
C1024: x44+x60-y44_60 <=1 
C1025: x45+x46 <=1 
C1026: x45+x47-y45_47 <=1 
C1027: x45+x48 <=1 
C1028: x45+x49 <=1 
C1029: x45+x51-y45_51 <=1 
C1030: x45+x52 <=1 
C1031: x45+x56 <=1 
C1032: x46+x47-y46_47 <=1 
C1033: x46+x49-y46_49 <=1 
C1034: x46+x52-y46_52 <=1 
C1035: x46+x54-y46_54 <=1 
C1036: x46+x55-y46_55 <=1 
C1037: x46+x57-y46_57 <=1 
C1038: x46+x58 <=1 
C1039: x46+x60 <=1 
C1040: x46+x61-y46_61 <=1 
C1041: x47+x48-y47_48 <=1 
C1042: x47+x50-y47_50 <=1 
C1043: x47+x51-y47_51 <=1 
C1044: x47+x53 <=1 
C1045: x47+x54-y47_54 <=1 
C1046: x47+x55-y47_55 <=1 
C1047: x47+x56-y47_56 <=1 
C1048: x47+x58-y47_58 <=1 
C1049: x47+x59 <=1 
C1050: x47+x60 <=1 
C1051: x47+x61-y47_61 <=1 
C1052: x48+x49 <=1 
C1053: x48+x50-y48_50 <=1 
C1054: x48+x51 <=1 
C1055: x48+x52 <=1 
C1056: x48+x54 <=1 
C1057: x48+x55 <=1 
C1058: x48+x56 <=1 
C1059: x48+x58-y48_58 <=1 
C1060: x48+x61 <=1 
C1061: x49+x50-y49_50 <=1 
C1062: x49+x51-y49_51 <=1 
C1063: x49+x53-y49_53 <=1 
C1064: x49+x56 <=1 
C1065: x49+x57 <=1 
C1066: x49+x59 <=1 
C1067: x49+x61 <=1 
C1068: x50+x51 <=1 
C1069: x50+x53 <=1 
C1070: x50+x54-y50_54 <=1 
C1071: x50+x56 <=1 
C1072: x50+x57 <=1 
C1073: x50+x61 <=1 
C1074: x51+x52 <=1 
C1075: x51+x53 <=1 
C1076: x51+x55-y51_55 <=1 
C1077: x51+x56 <=1 
C1078: x51+x59-y51_59 <=1 
C1079: x51+x60 <=1 
C1080: x52+x53 <=1 
C1081: x52+x55-y52_55 <=1 
C1082: x52+x56 <=1 
C1083: x52+x57 <=1 
C1084: x52+x58 <=1 
C1085: x52+x60 <=1 
C1086: x53+x54-y53_54 <=1 
C1087: x53+x55 <=1 
C1088: x53+x56 <=1 
C1089: x53+x57 <=1 
C1090: x53+x59-y53_59 <=1 
C1091: x53+x61-y53_61 <=1 
C1092: x54+x57 <=1 
C1093: x54+x58 <=1 
C1094: x54+x60-y54_60 <=1 
C1095: x54+x61-y54_61 <=1 
C1096: x55+x58-y55_58 <=1 
C1097: x55+x59 <=1 
C1098: x55+x61-y55_61 <=1 
C1099: x56+x58 <=1 
C1100: x56+x59-y56_59 <=1 
C1101: x56+x60 <=1 
C1102: x57+x58-y57_58 <=1 
C1103: x57+x59-y57_59 <=1 
C1104: x57+x60 <=1 
C1105: x57+x61-y57_61 <=1 
C1106: x58+x59 <=1 
C1107: x58+x61 <=1 
C1108: x60+x61 <=1 

binary
x0
x1
x2
x3
x4
x5
x6
x7
x8
x9
x10
x11
x12
x13
x14
x15
x16
x17
x18
x19
x20
x21
x22
x23
x24
x25
x26
x27
x28
x29
x30
x31
x32
x33
x34
x35
x36
x37
x38
x39
x40
x41
x42
x43
x44
x45
x46
x47
x48
x49
x50
x51
x52
x53
x54
x55
x56
x57
x58
x59
x60
x61
