problem_generation/data/GISP/train/er_n=62_m=1108_p=0.60_SET2_setparam=100.00_alpha=0.50_998.sol
objective value:                                 1272
x2                                                  1 	(obj:100)
x5                                                  1 	(obj:100)
x22                                                 1 	(obj:100)
x26                                                 1 	(obj:100)
x27                                                 1 	(obj:100)
x32                                                 1 	(obj:100)
x35                                                 1 	(obj:100)
x37                                                 1 	(obj:100)
x39                                                 1 	(obj:100)
x44                                                 1 	(obj:100)
x46                                                 1 	(obj:100)
x56                                                 1 	(obj:100)
x57                                                 1 	(obj:100)
y26_39                                              1 	(obj:-1)
y2_26                                               1 	(obj:-1)
y2_35                                               1 	(obj:-1)
y5_27                                               1 	(obj:-1)
y32_35                                              1 	(obj:-1)
y5_35                                               1 	(obj:-1)
y32_39                                              1 	(obj:-1)
y39_46                                              1 	(obj:-1)
y37_44                                              1 	(obj:-1)
y27_35                                              1 	(obj:-1)
y27_44                                              1 	(obj:-1)
y44_46                                              1 	(obj:-1)
y2_44                                               1 	(obj:-1)
y26_37                                              1 	(obj:-1)
y26_46                                              1 	(obj:-1)
y26_32                                              1 	(obj:-1)
y22_39                                              1 	(obj:-1)
y2_56                                               1 	(obj:-1)
y2_37                                               1 	(obj:-1)
y32_56                                              1 	(obj:-1)
y35_56                                              1 	(obj:-1)
y27_57                                              1 	(obj:-1)
y32_37                                              1 	(obj:-1)
y46_57                                              1 	(obj:-1)
y35_37                                              1 	(obj:-1)
y27_37                                              1 	(obj:-1)
y22_56                                              1 	(obj:-1)
y26_44                                              1 	(obj:-1)
